c ligne décrivant le problème (noeuds et arcs)
p max 8 12
c noeuds source
n 1 s
c neoud arrivé 
n 8 t
c lignes dérivant les arcs (du noeud, au noeud, capacité maximale)
a 1 2 2
a 1 3 7
a 1 4 2
a 2 5 6
a 2 6 5
a 3 5 2
a 3 6 3
a 4 6 2
a 4 7 8
a 5 8 2
a 6 8 5
a 7 8 7
c
c End of file
